
50
12768

8744 415
6068 288
17805 845
9355 444
11146 529
11631 552
7143 339
13485 640
18985 901
1517 72
11821 561
5583 265
13822 656
13148 624
969 46
2381 113
11146 529
18100 859
16814 798
17362 824
2907 138
7396 351
12158 577
7733 367
4867 231
19448 923
13401 636
8407 399
10051 477
14749 700
16014 760
16435 780
7058 335
20397 968
16098 764
5710 271
3624 172
9081 431
5499 261
18500 878
210 10
17236 818
3413 162
17109 812
9123 433
2781 132
20776 986
8828 419
20628 979
6806 323
